QPLIB_3562
LIQ
minimize
63 # number of variables
42 # number of constraints
0.0 # default value for linear coefficients in objective
14 # number of non-default linear coefficients in objective
1 0.1
2 0.2
3 0.3
4 0.4
5 0.5
6 0.6
7 0.7
8 1.0
9 1.0
10 1.0
11 1.0
12 1.0
13 1.0
14 1.0
0.0 # objective constant
49 # number of quadratic terms in all constraints
36 1 1 -2.0
36 1 1 -2.0
36 1 1 -2.0
36 1 1 -2.0
36 1 1 -2.0
36 1 1 -2.0
36 1 1 -2.0
37 26219073 65 -2.0
37 26219073 65 -2.0
37 26219073 65 -2.0
37 26219073 65 -2.0
37 26219073 65 -2.0
37 26219073 65 -2.0
37 26219073 65 -2.0
38 1 1 -2.0
38 1 1 -2.0
38 1 1 -2.0
38 1 1 -2.0
38 1 1 -2.0
38 1 1 -2.0
38 1 1 -2.0
39 26222625 113 -2.0
39 26222625 113 -2.0
39 26222625 113 -2.0
39 26222625 113 -2.0
39 26222625 113 -2.0
39 26222625 113 -2.0
39 26222625 113 -2.0
40 1 1 -2.0
40 1 1 -2.0
40 1 1 -2.0
40 1 1 -2.0
40 1 1 -2.0
40 1 1 -2.0
40 1 1 -2.0
41 1474691681 1 -2.0
41 1474691681 1 -2.0
41 1474691681 1 -2.0
41 1474691681 1 -2.0
41 1474691681 1 -2.0
41 1474691681 1 -2.0
41 1474691681 1 -2.0
42 32565 1 -2.0
42 32565 1 -2.0
42 32565 1 -2.0
42 32565 1 -2.0
42 32565 1 -2.0
42 32565 1 -2.0
42 32565 1 -2.0
175 # number of linear terms in all constraints
1 15 550.0
1 16 630.0
1 17 685.0
1 18 720.0
1 19 760.0
1 20 810.0
1 21 850.0
2 22 550.0
2 23 630.0
2 24 685.0
2 25 720.0
2 26 760.0
2 27 810.0
2 28 850.0
3 29 550.0
3 30 630.0
3 31 685.0
3 32 720.0
3 33 760.0
3 34 810.0
3 35 850.0
4 36 550.0
4 37 630.0
4 38 685.0
4 39 720.0
4 40 760.0
4 41 810.0
4 42 850.0
5 43 550.0
5 44 630.0
5 45 685.0
5 46 720.0
5 47 760.0
5 48 810.0
5 49 850.0
6 50 550.0
6 51 630.0
6 52 685.0
6 53 720.0
6 54 760.0
6 55 810.0
6 56 850.0
7 57 550.0
7 58 630.0
7 59 685.0
7 60 720.0
7 61 760.0
7 62 810.0
7 63 850.0
8 15 -550.0
8 16 -630.0
8 17 -685.0
8 18 -720.0
8 19 -760.0
8 20 -810.0
8 21 -850.0
9 22 -550.0
9 23 -630.0
9 24 -685.0
9 25 -720.0
9 26 -760.0
9 27 -810.0
9 28 -850.0
10 29 -550.0
10 30 -630.0
10 31 -685.0
10 32 -720.0
10 33 -760.0
10 34 -810.0
10 35 -850.0
11 36 -550.0
11 37 -630.0
11 38 -685.0
11 39 -720.0
11 40 -760.0
11 41 -810.0
11 42 -850.0
12 43 -550.0
12 44 -630.0
12 45 -685.0
12 46 -720.0
12 47 -760.0
12 48 -810.0
12 49 -850.0
13 50 -550.0
13 51 -630.0
13 52 -685.0
13 53 -720.0
13 54 -760.0
13 55 -810.0
13 56 -850.0
14 57 -550.0
14 58 -630.0
14 59 -685.0
14 60 -720.0
14 61 -760.0
14 62 -810.0
14 63 -850.0
15 15 1.0
15 16 1.0
15 17 1.0
15 18 1.0
15 19 1.0
15 20 1.0
15 21 1.0
16 22 1.0
16 23 1.0
16 24 1.0
16 25 1.0
16 26 1.0
16 27 1.0
16 28 1.0
17 29 1.0
17 30 1.0
17 31 1.0
17 32 1.0
17 33 1.0
17 34 1.0
17 35 1.0
18 36 1.0
18 37 1.0
18 38 1.0
18 39 1.0
18 40 1.0
18 41 1.0
18 42 1.0
19 43 1.0
19 44 1.0
19 45 1.0
19 46 1.0
19 47 1.0
19 48 1.0
19 49 1.0
20 50 1.0
20 51 1.0
20 52 1.0
20 53 1.0
20 54 1.0
20 55 1.0
20 56 1.0
21 57 1.0
21 58 1.0
21 59 1.0
21 60 1.0
21 61 1.0
21 62 1.0
21 63 1.0
22 1 1.0
22 8 -1.0
23 2 1.0
23 9 -1.0
24 3 1.0
24 10 -1.0
25 4 1.0
25 11 -1.0
26 5 1.0
26 12 -1.0
27 6 1.0
27 13 -1.0
28 7 1.0
28 14 -1.0
29 1 -15.0
29 8 1.0
30 2 -15.0
30 9 1.0
31 3 -15.0
31 10 1.0
32 4 -15.0
32 11 1.0
33 5 -15.0
33 12 1.0
34 6 -15.0
34 13 1.0
35 7 -15.0
35 14 1.0
1.79769313486232E+308 # value for infinity
-1.79769313486232E+308 # default left-hand-side value
0 # number of non-default left-hand-sides
0.0 # default right-hand-side value
28 # number of non-default right-hand-sides
1 3400.0
2 3400.0
3 3400.0
4 3400.0
5 3400.0
6 3400.0
7 3400.0
8 -3200.0
9 -3200.0
10 -3200.0
11 -3200.0
12 -3200.0
13 -3200.0
14 -3200.0
15 6.0
16 6.0
17 6.0
18 6.0
19 6.0
20 6.0
21 6.0
36 -8.0
37 -11.0
38 -15.0
39 -5.0
40 -8.0
41 -12.0
42 -6.0
0.0 # default variable lower bound value
0 # number of non-default variable lower bounds
6.0 # default variable upper bound value
14 # number of non-default variable upper bounds
1 1.0
2 1.0
3 1.0
4 1.0
5 1.0
6 1.0
7 1.0
8 15.0
9 15.0
10 15.0
11 15.0
12 15.0
13 15.0
14 15.0
0.0 # default variable primal value in starting point
0 # number of non-default variable primal values in starting point
0.0 # default constraint dual value in starting point
0 # number of non-default constraint dual values in starting point
0.0 # default variable bound dual value in starting point
0 # number of non-default variable bound dual values in starting point
0 # number of non-default variable names
0 # number of non-default constraint names
